
Gurobi 10.0.1 (mac64[arm]) logging started Mon Sep 18 23:06:26 2023

Set parameter LogFile to value "scenario_returns/returns_gamma/results/M_j_c_-50/mip_log.txt"
Gurobi Optimizer version 10.0.1 build v10.0.1rc0 (mac64[arm])

CPU model: Apple M1
Thread count: 8 physical cores, 8 logical processors, using up to 8 threads

Optimize a model with 1694 rows, 6293 columns and 24772 nonzeros
Model fingerprint: 0x1fd4a8e6
Model has 8978 general constraints
Variable types: 1 continuous, 6292 integer (408 binary)
Coefficient statistics:
  Matrix range     [6e-02, 3e+05]
  Objective range  [9e-02, 2e+05]
  Bounds range     [1e+00, 2e+07]
  RHS range        [2e+03, 2e+04]
  GenCon rhs range [1e+00, 1e+00]
  GenCon coe range [1e+00, 1e+00]
Presolve removed 44 rows and 373 columns
Presolve time: 0.07s
Presolved: 1650 rows, 5920 columns, 23673 nonzeros
Presolved model has 4 SOS constraint(s)
Variable types: 0 continuous, 5920 integer (34 binary)

Root relaxation: objective 6.679368e+07, 5664 iterations, 0.04 seconds (0.05 work units)

    Nodes    |    Current Node    |     Objective Bounds      |     Work
 Expl Unexpl |  Obj  Depth IntInf | Incumbent    BestBd   Gap | It/Node Time

     0     0 6.6794e+07    0  232          - 6.6794e+07      -     -    0s
H    0     0                    7.364836e+07 6.8114e+07  7.51%     -    0s
     0     0 6.8298e+07    0  407 7.3648e+07 6.8298e+07  7.26%     -    0s
H    0     0                    7.129194e+07 6.8298e+07  4.20%     -    0s
     0     0 6.8336e+07    0  410 7.1292e+07 6.8336e+07  4.15%     -    0s
     0     0 6.8366e+07    0  329 7.1292e+07 6.8366e+07  4.10%     -    0s
H    0     0                    7.118598e+07 6.8366e+07  3.96%     -    0s
H    0     0                    6.938126e+07 6.8366e+07  1.46%     -    0s
H    0     0                    6.927225e+07 6.8366e+07  1.31%     -    0s
     0     0 6.9203e+07    0  237 6.9272e+07 6.9203e+07  0.10%     -    0s
     0     0 6.9203e+07    0  225 6.9272e+07 6.9203e+07  0.10%     -    0s
     0     0 6.9203e+07    0  411 6.9272e+07 6.9203e+07  0.10%     -    0s
     0     0 6.9203e+07    0  236 6.9272e+07 6.9203e+07  0.10%     -    0s
     0     0 6.9203e+07    0  247 6.9272e+07 6.9203e+07  0.10%     -    0s
     0     0 6.9203e+07    0  228 6.9272e+07 6.9203e+07  0.10%     -    0s
     0     0 6.9203e+07    0  136 6.9272e+07 6.9203e+07  0.10%     -    0s
     0     0 6.9203e+07    0  420 6.9272e+07 6.9203e+07  0.10%     -    0s
     0     0 6.9203e+07    0  240 6.9272e+07 6.9203e+07  0.10%     -    0s
     0     0 6.9203e+07    0  240 6.9272e+07 6.9203e+07  0.10%     -    0s
     0     0 6.9203e+07    0  230 6.9272e+07 6.9203e+07  0.10%     -    0s
     0     0 6.9203e+07    0  615 6.9272e+07 6.9203e+07  0.10%     -    0s
     0     0 6.9203e+07    0  360 6.9272e+07 6.9203e+07  0.10%     -    0s
     0     0 6.9203e+07    0  236 6.9272e+07 6.9203e+07  0.10%     -    0s
     0     0 6.9203e+07    0  240 6.9272e+07 6.9203e+07  0.10%     -    0s
     0     0 6.9203e+07    0  240 6.9272e+07 6.9203e+07  0.10%     -    0s
     0     0 6.9203e+07    0  240 6.9272e+07 6.9203e+07  0.10%     -    0s
     0     2 6.9203e+07    0  240 6.9272e+07 6.9203e+07  0.10%     -    0s

Cutting planes:
  Gomory: 6
  Implied bound: 108
  MIR: 50
  Relax-and-lift: 1

Explored 6 nodes (19930 simplex iterations) in 0.94 seconds (1.01 work units)
Thread count was 8 (of 8 available processors)

Solution count 5: 6.92722e+07 6.93813e+07 7.1186e+07 ... 7.36484e+07

Optimal solution found (tolerance 1.00e-04)
Best objective 6.927224882000e+07, best bound 6.927224882000e+07, gap 0.0000%
